
Gurobi 7.0.1 (win64) logging started 11/28/17 17:52:44

Set parameter TimeLimit to value 86400
Set parameter Threads to value 4

Gurobi Optimizer version 7.0.1 build v7.0.1rc0 (win64)
Copyright (c) 2016, Gurobi Optimization, Inc.

Read LP format model from file whity_2team.lp
Reading time = 0.05 seconds
Objective: 4431 rows, 1642 columns, 16850 nonzeros
Optimize a model with 4431 rows, 1642 columns and 16850 nonzeros
Variable types: 36 continuous, 1606 integer (0 binary)
Coefficient statistics:
  Matrix range     [7e-01, 5e+02]
  Objective range  [1e+00, 1e+00]
  Bounds range     [1e+00, 1e+00]
  RHS range        [1e+00, 5e+02]
Presolve removed 2441 rows and 583 columns
Presolve time: 0.09s
Presolved: 1990 rows, 1059 columns, 7896 nonzeros
Variable types: 18 continuous, 1041 integer (1041 binary)
Found heuristic solution: objective 68.1515152

Root relaxation: objective 0.000000e+00, 333 iterations, 0.00 seconds

    Nodes    |    Current Node    |     Objective Bounds      |     Work
 Expl Unexpl |  Obj  Depth IntInf | Incumbent    BestBd   Gap | It/Node Time

     0     0    0.00000    0   29   68.15152    0.00000   100%     -    0s
H    0     0                      42.5454545    0.00000   100%     -    0s
H    0     0                      27.5454545    0.00000   100%     -    0s
     0     0    0.00000    0   34   27.54545    0.00000   100%     -    0s
     0     0    0.00000    0   61   27.54545    0.00000   100%     -    0s
H    0     0                      22.9090909    0.00000   100%     -    0s
     0     0    0.00000    0   61   22.90909    0.00000   100%     -    0s
     0     0    0.00000    0   38   22.90909    0.00000   100%     -    0s
     0     0    0.00000    0   38   22.90909    0.00000   100%     -    0s
H    0     0                      20.0606061    0.00000   100%     -    0s
     0     0    0.00000    0   24   20.06061    0.00000   100%     -    0s
     0     0    0.00000    0   22   20.06061    0.00000   100%     -    0s
     0     0    0.00000    0   17   20.06061    0.00000   100%     -    0s
     0     0    0.00000    0   49   20.06061    0.00000   100%     -    0s
     0     0    1.00000    0   23   20.06061    1.00000  95.0%     -    0s
     0     0    1.00000    0   23   20.06061    1.00000  95.0%     -    0s
     0     0    5.00000    0   71   20.06061    5.00000  75.1%     -    0s
H    0     0                      15.4848485    5.00000  67.7%     -    0s
     0     0    5.00000    0   72   15.48485    5.00000  67.7%     -    0s
     0     0    5.00000    0   99   15.48485    5.00000  67.7%     -    0s
     0     0    5.00000    0   74   15.48485    5.00000  67.7%     -    0s
     0     0    5.25573    0   48   15.48485    5.25573  66.1%     -    1s
     0     0    5.32714    0   48   15.48485    5.32714  65.6%     -    1s
     0     0    5.33130    0   55   15.48485    5.33130  65.6%     -    1s
     0     0    5.33221    0   74   15.48485    5.33221  65.6%     -    1s
     0     0    5.34189    0   68   15.48485    5.34189  65.5%     -    1s
     0     0    5.34464    0   73   15.48485    5.34464  65.5%     -    1s
     0     0    5.38953    0   67   15.48485    5.38953  65.2%     -    1s
     0     0    5.39706    0   59   15.48485    5.39706  65.1%     -    1s
     0     0    8.00000    0  101   15.48485    8.00000  48.3%     -    1s
     0     0    8.03926    0   89   15.48485    8.03926  48.1%     -    1s
     0     0    8.04002    0   99   15.48485    8.04002  48.1%     -    1s
     0     0    8.04002    0   99   15.48485    8.04002  48.1%     -    1s
     0     0    8.04184    0   88   15.48485    8.04184  48.1%     -    1s
     0     0    8.04184    0   86   15.48485    8.04184  48.1%     -    1s
     0     0    8.04629    0   86   15.48485    8.04629  48.0%     -    1s
     0     0    8.04904    0   88   15.48485    8.04904  48.0%     -    1s
     0     0    8.05201    0   83   15.48485    8.05201  48.0%     -    1s
     0     0    8.05251    0   74   15.48485    8.05251  48.0%     -    1s
     0     0    8.05383    0   74   15.48485    8.05383  48.0%     -    1s
     0     0    8.05383    0   72   15.48485    8.05383  48.0%     -    1s
     0     0    8.05475    0   79   15.48485    8.05475  48.0%     -    1s
     0     0    8.05569    0   81   15.48485    8.05569  48.0%     -    1s
     0     0    8.05578    0   57   15.48485    8.05578  48.0%     -    1s
     0     0    8.05670    0   68   15.48485    8.05670  48.0%     -    1s
     0     0    8.05679    0   64   15.48485    8.05679  48.0%     -    1s
     0     0    8.05701    0   64   15.48485    8.05701  48.0%     -    1s
     0     2    8.05701    0   64   15.48485    8.05701  48.0%     -    1s
H   65    51                      15.1818182    9.66667  36.3%  80.1    1s
*  175    84              45      12.6060606    9.66667  23.3%  66.9    2s
*  176    81              43      11.5151515    9.66667  16.1%  66.6    2s
*  255   112              16      11.3333333    9.66667  14.7%  68.0    2s
*  364   121              21      10.8787879    9.66667  11.1%  67.7    2s
H  508   181                      10.8787879    9.66667  11.1%  64.9    2s
H  575   210                      10.8181818    9.66667  10.6%  63.1    2s
*  594   142              44      10.5454545    9.66667  8.33%  62.2    2s

Cutting planes:
  Cover: 6
  Implied bound: 67
  Clique: 4
  MIR: 20
  Zero half: 9

Explored 1539 nodes (105342 simplex iterations) in 3.06 seconds
Thread count was 4 (of 20 available processors)

Solution count 10: 10.5455 10.8182 10.8788 ... 20.0606
Pool objective bound 10.5455

Optimal solution found (tolerance 1.00e-04)
Best objective 1.054545454545e+01, best bound 1.054545454545e+01, gap 0.0000%

Wrote result file 'whity_2team.sol'

